Problem:    
Rows:       61
Columns:    262 (262 integer, 262 binary)
Non-zeros:  1352
Status:     INTEGER OPTIMAL
Objective:  score = 69028 (MAXimum)

   No.   Row name        Activity     Lower bound   Upper bound
------ ------------    ------------- ------------- -------------
     1 index_0                    31             0               
     2 index_1                     4             0               
     3 index_2                     0             0               
     4 index_3                     2             0               
     5 index_4                     2             0               
     6 index_5                     1             0               
     7 index_6                     1             0               
     8 index_7                    21             0               
     9 index_8                     4             0               
    10 index_9                     0             0               
    11 index_10                    2             0               
    12 index_11                    1             0               
    13 index_12                    0             0               
    14 index_13                    0             0               
    15 index_14                    1             0               
    16 index_15                    6             0               
    17 index_16                    2             0               
    18 index_17                    1             0               
    19 index_18                    0             0               
    20 index_19                    1             0               
    21 index_20                    2             0               
    22 index_21                    4             0               
    23 index_22                    0             0               
    24 index_23                    1             0               
    25 index_24                    3             0               
    26 index_25                    2             0               
    27 index_26                    4             0               
    28 index_27                    1             0               
    29 index_28                    1             0               
    30 index_29                   11             0               
    31 index_30                    4             0               
    32 index_31                    2             0               
    33 index_32                    3             0               
    34 index_33                   16             0               
    35 index_34                    3             0               
    36 index_35                    5             0               
    37 index_36                    1             0               
    38 index_37                    4             0               
    39 index_38                    1             0               
    40 index_39                    0             0               
    41 index_40                    1             0               
    42 index_41                    0             0               
    43 index_42                    4             0               
    44 index_43                    1             0               
    45 index_44                    1             0               
    46 index_45                    1             0               
    47 index_46                    2             0               
    48 index_47                    1             0               
    49 index_48                    0             0               
    50 index_49                    4             0               
    51 index_50                    5             0               
    52 index_51                    6             0               
    53 index_52                    3             0               
    54 index_53                    1             0               
    55 index_54                    3             0               
    56 index_55                    3             0               
    57 index_56                    4             0               
    58 index_57                    0             0               
    59 index_58                    3             0               
    60 length_max               4241                        5643 
    61 length_min               4241          4232               

   No. Column name       Activity     Lower bound   Upper bound
------ ------------    ------------- ------------- -------------
     1 c0           *              1             0             1 
     2 c1           *              1             0             1 
     3 c2           *              1             0             1 
     4 c3           *              1             0             1 
     5 c4           *              1             0             1 
     6 c5           *              1             0             1 
     7 c6           *              1             0             1 
     8 c7           *              1             0             1 
     9 c8           *              1             0             1 
    10 c9           *              1             0             1 
    11 c10          *              1             0             1 
    12 c11          *              1             0             1 
    13 c12          *              1             0             1 
    14 c13          *              1             0             1 
    15 c14          *              1             0             1 
    16 c15          *              1             0             1 
    17 c16          *              1             0             1 
    18 c17          *              1             0             1 
    19 c18          *              1             0             1 
    20 c19          *              1             0             1 
    21 c20          *              1             0             1 
    22 c21          *              1             0             1 
    23 c22          *              1             0             1 
    24 c23          *              1             0             1 
    25 c24          *              1             0             1 
    26 c25          *              1             0             1 
    27 c26          *              1             0             1 
    28 c27          *              1             0             1 
    29 c28          *              1             0             1 
    30 c29          *              1             0             1 
    31 c30          *              1             0             1 
    32 c31          *              1             0             1 
    33 c32          *              1             0             1 
    34 c33          *              1             0             1 
    35 c34          *              1             0             1 
    36 c35          *              1             0             1 
    37 c36          *              1             0             1 
    38 c37          *              1             0             1 
    39 c38          *              1             0             1 
    40 c39          *              1             0             1 
    41 c40          *              1             0             1 
    42 c41          *              1             0             1 
    43 c42          *              1             0             1 
    44 c43          *              1             0             1 
    45 c44          *              1             0             1 
    46 c45          *              1             0             1 
    47 c46          *              1             0             1 
    48 c47          *              1             0             1 
    49 c48          *              1             0             1 
    50 c49          *              1             0             1 
    51 c50          *              1             0             1 
    52 c51          *              1             0             1 
    53 c52          *              1             0             1 
    54 c53          *              1             0             1 
    55 c54          *              1             0             1 
    56 c55          *              1             0             1 
    57 c56          *              1             0             1 
    58 c57          *              1             0             1 
    59 c58          *              1             0             1 
    60 s0           *              0             0             1 
    61 s2           *              1             0             1 
    62 s3           *              0             0             1 
    63 s4           *              1             0             1 
    64 s6           *              0             0             1 
    65 s8           *              0             0             1 
    66 s10          *              0             0             1 
    67 s12          *              0             0             1 
    68 s14          *              0             0             1 
    69 s16          *              0             0             1 
    70 s18          *              0             0             1 
    71 s20          *              0             0             1 
    72 s22          *              1             0             1 
    73 s24          *              0             0             1 
    74 s26          *              0             0             1 
    75 s28          *              0             0             1 
    76 s30          *              1             0             1 
    77 s31          *              0             0             1 
    78 s32          *              1             0             1 
    79 s34          *              1             0             1 
    80 s36          *              0             0             1 
    81 s38          *              1             0             1 
    82 s40          *              1             0             1 
    83 s42          *              0             0             1 
    84 s44          *              0             0             1 
    85 s46          *              1             0             1 
    86 s48          *              0             0             1 
    87 s50          *              1             0             1 
    88 s52          *              0             0             1 
    89 s54          *              0             0             1 
    90 s56          *              1             0             1 
    91 s58          *              0             0             1 
    92 s60          *              0             0             1 
    93 s62          *              0             0             1 
    94 s64          *              0             0             1 
    95 s66          *              0             0             1 
    96 s68          *              1             0             1 
    97 s69          *              0             0             1 
    98 s70          *              1             0             1 
    99 s72          *              0             0             1 
   100 s74          *              0             0             1 
   101 s75          *              0             0             1 
   102 s77          *              0             0             1 
   103 s79          *              0             0             1 
   104 s80          *              0             0             1 
   105 s81          *              0             0             1 
   106 s83          *              0             0             1 
   107 s85          *              1             0             1 
   108 s86          *              0             0             1 
   109 s89          *              1             0             1 
   110 s95          *              0             0             1 
   111 s96          *              0             0             1 
   112 s98          *              0             0             1 
   113 s100         *              0             0             1 
   114 s102         *              0             0             1 
   115 s104         *              0             0             1 
   116 s106         *              0             0             1 
   117 s108         *              0             0             1 
   118 s109         *              0             0             1 
   119 s110         *              1             0             1 
   120 s111         *              0             0             1 
   121 s113         *              0             0             1 
   122 s115         *              0             0             1 
   123 s119         *              0             0             1 
   124 s120         *              1             0             1 
   125 s122         *              0             0             1 
   126 s124         *              0             0             1 
   127 s126         *              0             0             1 
   128 s128         *              1             0             1 
   129 s130         *              0             0             1 
   130 s134         *              0             0             1 
   131 s136         *              0             0             1 
   132 s138         *              0             0             1 
   133 s140         *              1             0             1 
   134 s141         *              0             0             1 
   135 s142         *              0             0             1 
   136 s143         *              0             0             1 
   137 s145         *              0             0             1 
   138 s146         *              0             0             1 
   139 s147         *              1             0             1 
   140 s149         *              0             0             1 
   141 s151         *              0             0             1 
   142 s153         *              0             0             1 
   143 s155         *              0             0             1 
   144 s156         *              1             0             1 
   145 s158         *              0             0             1 
   146 s160         *              0             0             1 
   147 s162         *              1             0             1 
   148 s163         *              0             0             1 
   149 s164         *              0             0             1 
   150 s166         *              1             0             1 
   151 s168         *              1             0             1 
   152 s170         *              0             0             1 
   153 s172         *              1             0             1 
   154 s174         *              1             0             1 
   155 s175         *              1             0             1 
   156 s177         *              0             0             1 
   157 s178         *              0             0             1 
   158 s180         *              1             0             1 
   159 s182         *              1             0             1 
   160 s184         *              0             0             1 
   161 s186         *              0             0             1 
   162 s188         *              0             0             1 
   163 s190         *              1             0             1 
   164 s192         *              1             0             1 
   165 s194         *              0             0             1 
   166 s196         *              0             0             1 
   167 s198         *              0             0             1 
   168 s200         *              0             0             1 
   169 s202         *              1             0             1 
   170 s91          *              0             0             1 
   171 s88          *              0             0             1 
   172 s84          *              1             0             1 
   173 s87          *              0             0             1 
   174 s90          *              0             0             1 
   175 s92          *              0             0             1 
   176 s97          *              0             0             1 
   177 s99          *              0             0             1 
   178 s103         *              0             0             1 
   179 s105         *              0             0             1 
   180 s112         *              0             0             1 
   181 s116         *              0             0             1 
   182 s123         *              0             0             1 
   183 s125         *              0             0             1 
   184 s127         *              0             0             1 
   185 s129         *              0             0             1 
   186 s131         *              0             0             1 
   187 s1           *              0             0             1 
   188 s5           *              0             0             1 
   189 s7           *              0             0             1 
   190 s11          *              0             0             1 
   191 s13          *              0             0             1 
   192 s15          *              0             0             1 
   193 s17          *              0             0             1 
   194 s21          *              0             0             1 
   195 s23          *              0             0             1 
   196 s29          *              0             0             1 
   197 s33          *              0             0             1 
   198 s35          *              0             0             1 
   199 s37          *              0             0             1 
   200 s39          *              0             0             1 
   201 s41          *              0             0             1 
   202 s43          *              0             0             1 
   203 s47          *              0             0             1 
   204 s49          *              0             0             1 
   205 s51          *              0             0             1 
   206 s53          *              0             0             1 
   207 s55          *              0             0             1 
   208 s57          *              0             0             1 
   209 s59          *              0             0             1 
   210 s61          *              0             0             1 
   211 s63          *              0             0             1 
   212 s65          *              0             0             1 
   213 s67          *              0             0             1 
   214 s71          *              0             0             1 
   215 s73          *              0             0             1 
   216 s76          *              0             0             1 
   217 s78          *              0             0             1 
   218 s82          *              0             0             1 
   219 s93          *              0             0             1 
   220 s94          *              0             0             1 
   221 s101         *              0             0             1 
   222 s107         *              0             0             1 
   223 s114         *              0             0             1 
   224 s117         *              0             0             1 
   225 s118         *              0             0             1 
   226 s121         *              0             0             1 
   227 s132         *              0             0             1 
   228 s133         *              0             0             1 
   229 s135         *              0             0             1 
   230 s137         *              0             0             1 
   231 s144         *              0             0             1 
   232 s148         *              0             0             1 
   233 s150         *              0             0             1 
   234 s152         *              0             0             1 
   235 s154         *              0             0             1 
   236 s157         *              0             0             1 
   237 s159         *              0             0             1 
   238 s161         *              0             0             1 
   239 s167         *              0             0             1 
   240 s169         *              0             0             1 
   241 s171         *              0             0             1 
   242 s173         *              0             0             1 
   243 s176         *              0             0             1 
   244 s179         *              0             0             1 
   245 s181         *              0             0             1 
   246 s183         *              0             0             1 
   247 s189         *              0             0             1 
   248 s191         *              0             0             1 
   249 s193         *              0             0             1 
   250 s195         *              0             0             1 
   251 s197         *              0             0             1 
   252 s199         *              0             0             1 
   253 s201         *              0             0             1 
   254 s25          *              0             0             1 
   255 s45          *              0             0             1 
   256 s185         *              0             0             1 
   257 s187         *              0             0             1 
   258 s9           *              0             0             1 
   259 s19          *              0             0             1 
   260 s27          *              0             0             1 
   261 s139         *              0             0             1 
   262 s165         *              0             0             1 

Integer feasibility conditions:

KKT.PE: max.abs.err = 0.00e+00 on row 0
        max.rel.err = 0.00e+00 on row 0
        High quality

KKT.PB: max.abs.err = 0.00e+00 on row 0
        max.rel.err = 0.00e+00 on row 0
        High quality

End of output
